\ LP format - for model browsing. Use MPS format to capture full model detail.
Maximize
  5 x_1 + 5 x_2 + 9 x_3 + 9 x_4 + 2 x_5
Subject To
 C_1: 8 x_1 + 8 x_2 + 4 x_3 + 3 x_4 + 9 x_5 <= 16
 C_2: 8 x_1 + 2 x_2 + 5 x_3 + 2 x_4 + 3 x_5 <= 10
 C_3: 10 x_1 + 8 x_2 + 3 x_3 + 2 x_4 + x_5 <= 12
 C_4: 7 x_1 + 3 x_2 + 10 x_3 + 9 x_4 + 7 x_5 <= 18
 C_5: x_1 + 7 x_2 + 7 x_3 + 4 x_4 + 5 x_5 <= 12
Bounds
Binaries
 x_1 x_2 x_3 x_4 x_5
End
